32 24
18 62
19 6
2 110
1 630
3 180
21 555
22 15
1 755
1 533
13 238
8 594
13 69
11 82
21 35
1 416
6 190
16 987
14 188
13 238
10 952
22 414
12 928
17 377
6 300
14 232
15 506
15 581
16 200
22 264
15 441
20 902
8 330
